# PARALLIZATION
autoparal 1
mem_test 0
chkprim 0
#DEFINE GEOMETRY
acell 1.88972613 1.88972613 1.88972613
rprim
3.1248966289 0 0
-1.5624483095 2.71302242 0
0 0 20

natom 3
ntypat 2
znucl 42 16
typat 1*1 2*2

xred
 3.3343182852E-01  6.6686234596E-01  1.5634126177E-01
 6.6660966841E-01  3.3322482336E-01  2.3399185318E-01
 6.6662510010E-01  3.3324614367E-01  7.8416885072E-02
#KPOINTS
#ngkpt 12 12 1
nshiftk 1
shiftk 0.0 0.0 0.0

#CALCULATION DETAILS
ecut 10.0
pawecutdg 12.0
nstep 100
diemac 3.0
occopt 7
tsmear 0.0025

#scf
#ionmov 0

#scf + relax
#toldfe 3.67647058823529E-08
#kptopt 1

#relaxation
#tolmxf 1E-4
#ntime 1000
#ionmov 2
#optcell 2
#ecutsm 0.5
#dilatmx 1.3

#bands
kptopt -3
kptbounds 0 0 0  1/2 0 0  1/3 1/3 0  0 0 0
ndivk 24 24 24

#wfc
iscf -2
irdden 1

#wfc + ddk
ionmov 0
nband 78
tolwfr  1.e-18
ngfft   20      24     120
#kptopt 3

#ddk
#iscf -3
#irdwfk 1
#nqpt  1
#qpt  0.0d0 0.0d0 0.0d0
#rfdir 1 1 1
#rfelfd  2
#nline 0
#prtwf 3
